Normalized Data/p01_12_normalized_split0.vrp
NAME:p01_12_NORMALIZED_split
BEST_KNOWN: 0
COMMENT: 0
DIMENSION: 206
CAPACITY: 100
EDGE_WEIGHT_FORMAT: FUNCTION
EDGE_WEIGHT_TYPE: EXACT_2D
NODE_COORD_SECTION
1 0.00000 0.00000
2 -4 -48
3 -4 -48
4 -4 -48
5 43 37
6 43 37
7 43 37
8 43 -41
9 43 -41
10 43 -41
11 43 -41
12 43 -41
13 43 -41
14 43 -41
15 8 -12
16 8 -12
17 8 -12
18 8 -12
19 8 -12
20 8 -12
21 24 7
22 24 7
23 24 7
24 24 7
25 11 -1
26 11 -1
27 11 -1
28 -1 41
29 -1 41
30 -1 41
31 -1 41
32 -1 41
33 -1 41
34 26 23
35 26 23
36 26 23
37 26 23
38 26 23
39 30 24
40 5 -23
41 5 -23
42 -5 -33
43 -5 -33
44 -5 -33
45 44 -45
46 44 -45
47 44 -45
48 44 -45
49 44 -45
50 44 -45
51 -47 13
52 -47 13
53 -47 13
54 -47 13
55 -47 13
56 -36 20
57 -36 20
58 -36 20
59 -36 20
60 -49 46
61 -49 46
62 -49 46
63 -49 46
64 -27 -3
65 -27 -3
66 48 18
67 48 18
68 48 18
69 -14 -15
70 -14 -15
71 -7 -2
72 -7 -2
73 -7 -2
74 -7 -2
75 -48 -2
76 -48 -2
77 -20 45
78 -20 45
79 -20 45
80 -20 45
81 19 -13
82 19 -13
83 19 -13
84 19 -13
85 19 -13
86 19 -13
87 -5 37
88 -5 37
89 -5 37
90 25 30
91 25 30
92 25 30
93 25 30
94 25 30
95 25 30
96 38 -42
97 38 -42
98 38 -42
99 38 -42
100 -41 -21
101 -41 -21
102 -41 -21
103 -41 -21
104 -41 -21
105 -21 -8
106 -21 -8
107 -21 -8
108 -21 -8
109 -21 -8
110 -21 -8
111 -49 -3
112 -49 -3
113 -38 15
114 -38 15
115 -38 15
116 -38 15
117 -38 15
118 -20 -37
119 -20 -37
120 -20 -37
121 -20 -37
122 -30 -45
123 -30 -45
124 -30 -45
125 -30 -45
126 -31 33
127 -31 33
128 -31 33
129 33 -46
130 33 -46
131 33 -46
132 -1 -30
133 -1 -30
134 -1 -30
135 -1 -30
136 -1 -30
137 -27 -21
138 -27 -21
139 -27 -21
140 -26 42
141 -26 42
142 -26 42
143 45 49
144 45 49
145 45 49
146 45 49
147 -26 -45
148 -26 -45
149 -26 -45
150 -26 -45
151 41 -34
152 41 -34
153 41 -34
154 41 -34
155 41 -34
156 41 -34
157 -16 47
158 -16 47
159 -16 47
160 -16 47
161 -16 47
162 9 32
163 9 32
164 9 32
165 9 32
166 9 32
167 9 32
168 9 32
169 -45 -2
170 -45 -2
171 32 7
172 32 7
173 32 7
174 32 7
175 32 7
176 32 7
177 32 7
178 -23 43
179 -23 43
180 -23 43
181 -23 43
182 -50 -39
183 -50 -39
184 -50 -39
185 -50 -39
186 -32 13
187 -32 13
188 -32 13
189 -32 13
190 -32 13
191 -32 13
192 -32 13
193 -47 -31
194 -47 -31
195 31 30
196 31 30
197 31 30
198 -7 45
199 -7 45
200 -7 45
201 -7 45
202 -7 45
203 -37 22
204 -37 22
205 -37 22
206 -37 22
DEMAND_SECTION
1 0
2 20
3 20
4 5
5 20
6 20
7 5
8 20
9 10
10 5
11 1
12 1
13 1
14 1
15 20
16 10
17 5
18 1
19 1
20 1
21 20
22 20
23 1
24 1
25 20
26 20
27 1
28 20
29 10
30 5
31 1
32 1
33 1
34 20
35 20
36 5
37 1
38 1
39 20
40 20
41 10
42 20
43 10
44 1
45 20
46 10
47 5
48 1
49 1
50 1
51 20
52 5
53 1
54 1
55 1
56 20
57 20
58 1
59 1
60 10
61 1
62 1
63 1
64 10
65 5
66 20
67 10
68 5
69 20
70 1
71 20
72 10
73 5
74 1
75 20
76 10
77 20
78 1
79 1
80 1
81 20
82 10
83 5
84 1
85 1
86 1
87 20
88 20
89 10
90 20
91 20
92 1
93 1
94 1
95 1
96 20
97 10
98 1
99 1
100 20
101 5
102 1
103 1
104 1
105 20
106 20
107 5
108 1
109 1
110 1
111 10
112 5
113 20
114 20
115 1
116 1
117 1
118 20
119 20
120 5
121 1
122 20
123 10
124 5
125 1
126 10
127 5
128 1
129 20
130 20
131 10
132 10
133 5
134 1
135 1
136 1
137 20
138 20
139 5
140 20
141 20
142 1
143 10
144 5
145 1
146 1
147 20
148 20
149 5
150 1
151 20
152 5
153 1
154 1
155 1
156 1
157 20
158 1
159 1
160 1
161 1
162 20
163 20
164 5
165 1
166 1
167 1
168 1
169 20
170 10
171 20
172 20
173 5
174 1
175 1
176 1
177 1
178 20
179 10
180 1
181 1
182 20
183 10
184 1
185 1
186 20
187 10
188 5
189 1
190 1
191 1
192 1
193 20
194 20
195 20
196 10
197 5
198 20
199 5
200 1
201 1
202 1
203 20
204 10
205 5
206 1
DEPOT_SECTION
1
-1
EOF