Normalized Data/p01_12_normalized_split0.sol
205 -16 18 17 14 19 15 85 82 80 84 83 81 -21 23 22 20 175 176 171 172 170 174 173 -24 26 25 -31 32 27 29 28 30 87 86 88 -35 34 33 196 194 195 38 -37 36 145 143 144 142 4 5 6 67 66 65 -39 131 135 134 133 2 1 3 41 43 -40 130 129 128 98 97 95 96 151 153 154 -45 46 44 49 47 48 11 8 13 9 7 10 12 155 150 152 -54 53 51 52 50 114 112 113 115 116 190 188 185 -69 68 108 106 104 105 107 109 73 71 70 -72 64 63 110 111 75 74 168 169 -93 94 90 91 89 92 167 166 163 164 165 161 162 -103 102 100 101 99 192 193 184 181 183 182 -118 120 119 117 137 138 136 -124 123 121 122 146 147 149 148 42 132 -127 125 126 60 59 61 62 139 140 141 178 -177 180 179 77 78 76 79 159 158 160 156 157 200 198 199 197 201 -191 186 187 189 55 57 56 58 205 203 204 202 0 





OBJ=
1835.050
BEST_KNOWN=
0.000